# Data for pyomo

set c := c1 c2 c3 c4;

set h := h1 h2 h3 h4;

set j := j1 j2;

set m := 
m1 
m2 
m3 
m4 
m5 
m6
;

set p :=
p1
p2
p3
p4
p5
p6
p7
p8
p9
p10
p11
p12
p13
p14
p15
p16
p17
p18
p19
p20
p21
p22
p23
p24
p25
p26
p27
p28
p29
p30
p31
p32
p33
p34
p35
p36
p37
p38
p39
p40
p41
p42
p43
p44
p45
p46
p47
p48
p49
p50
p51
p52
p53
p54
p55
p56
p57
p58
p59
p60
p61
p62
p63
p64
p65
p66
p67
p68
p69
p70
p71
p72
p73
p74
p75
p76
p77
p78
p79
p80
p81
p82
p83
p84
p85
p86
p87
p88
p89
p90
p91
p92
p93
p94
p95
p96
p97
p98
p99
p100
p101
p102
p103
p104
p105
p106
p107
p108
p109
p110
p111
p112
p113
p114
p115
p116
p117
p118
p119
p120
p121
p122
p123
p124
p125
p126
p127
p128
p129
p130
p131
p132
p133
p134
p135
p136
p137
p138
p139
p140
p141
p142
p143
p144
p145
p146
p147
p148
p149
p150
p151
p152
p153
p154
p155
p156
p157
p158
p159
p160
p161
p162
p163
p164
p165
p166
p167
p168
p169
p170
p171
p172
p173
p174
p175
p176
p177
p178
p179
p180
p181
p182
p183
p184
p185
p186
p187
p188
p189
p190
p191
p192
p193
p194
p195
p196
p197
p198
p199
p200
p201
p202
p203
p204
p205
p206
p207
p208
p209
p210
p211
p212
p213
p214
p215
p216
p217
p218
p219
p220
p221
p222
p223
p224
p225
p226
p227
p228
p229
p230
p231
p232
p233
p234
p235
p236
p237
p238
p239
p240
p241
p242
p243
p244
p245
p246
p247
p248
p249
p250
p251
p252
p253
p254
p255
p256
p257
p258
p259
p260
p261
p262
p263
p264
p265
p266
p267
p268
p269
p270
p271
p272
p273
p274
p275
p276
p277
p278
p279
p280
p281
p282
p283
p284
p285
p286
p287
p288
p289
p290
p291
p292
p293
p294
p295
p296
p297
p298
p299
p300
p301
p302
p303
p304
p305
p306
p307
p308
p309
p310
p311
p312
p313
p314
p315
p316
p317
p318
p319
p320
p321
p322
p323
p324
p325
p326
p327
p328
p329
p330
p331
p332
p333
p334
p335
p336
p337
p338
p339
p340
p341
p342
p343
p344
p345
p346
p347
p348
p349
p350
p351
p352
p353
p354
p355
p356
p357
p358
p359
p360
p361
p362
p363
p364
p365
p366
p367
p368
p369
p370
p371
p372
p373
p374
p375
p376
p377
p378
p379
p380
p381
p382
p383
p384
p385
p386
p387
p388
p389
p390
p391
p392
p393
p394
p395
p396
p397
p398
p399
p400
p401
p402
p403
p404
p405
p406
p407
p408
p409
p410
p411
p412
p413
p414
p415
p416
p417
p418
p419
p420
p421
p422
p423
p424
p425
p426
p427
p428
p429
p430
p431
p432
p433
p434
p435
p436
p437
p438
p439
p440
p441
p442
p443
p444
p445
p446
p447
p448
p449
p450
p451
p452
p453
p454
p455
p456
p457
p458
p459
p460
p461
p462
p463
p464
p465
p466
p467
p468
p469
p470
p471
p472
p473
p474
p475
p476
p477
p478
p479
p480
p481
p482
p483
p484
p485
p486
p487
p488
p489
p490
p491
p492
p493
p494
p495
p496
p497
p498
p499
p500
;

param CIM :=
m1 2216.13
m2 16621.00
m3 5540.33
m4 2216.13
m5 16621.00
m6 5540.33
;

param FCAP :=
m1 4
m2 31
m3 10
m4 4
m5 31
m6 10
;

param TT1 :=
j1 1
j2 2
;

param TT3 :=
j1 1
j2 2
;


param U1 :=
c1 m1 j1 1040
c1 m2 j1 2600
c1 m3 j1 2600
c1 m4 j1 2900
c1 m5 j1 3500
c1 m6 j1 3500
c2 m1 j1 2600
c2 m2 j1 200
c2 m3 j1 2600
c2 m4 j1 2900
c2 m5 j1 3500
c2 m6 j1 3500
c3 m1 j1 1840
c3 m2 j1 2000
c3 m3 j1 2900
c3 m4 j1 2900
c3 m5 j1 3500
c3 m6 j1 3500
c4 m1 j1 1640
c4 m2 j1 1820
c4 m3 j1 2900
c4 m4 j1 2900
c4 m5 j1 3500
c4 m6 j1 3500
c1 m1 j2 520
c1 m2 j2 520
c1 m3 j2 520
c1 m4 j2 936
c1 m5 j2 1053
c1 m6 j2 1053
c2 m1 j2 520
c2 m2 j2 100
c2 m3 j2 520
c2 m4 j2 936
c2 m5 j2 1053
c2 m6 j2 1053
c3 m1 j2 520
c3 m2 j2 520
c3 m3 j2 936
c3 m4 j2 936
c3 m5 j2 1053
c3 m6 j2 1053
c4 m1 j2 520
c4 m2 j2 520
c4 m3 j2 936
c4 m4 j2 936
c4 m5 j2 1053
c4 m6 j2 1053
;

param U3 :=
m1 h1 j1 1910
m1 h2 j1 1910
m1 h3 j1 2910
m1 h4 j1 1910
m2 h1 j1 2910
m2 h2 j1 400
m2 h3 j1 1910
m2 h4 j1 1910
m3 h1 j1 2910
m3 h2 j1 2910
m3 h3 j1 2910
m3 h4 j1 2910
m4 h1 j1 2910
m4 h2 j1 2910
m4 h3 j1 2910
m4 h4 j1 2910
m5 h1 j1 2910
m5 h2 j1 2910
m5 h3 j1 2910
m5 h4 j1 2910
m6 h1 j1 2910
m6 h2 j1 2910
m6 h3 j1 2910
m6 h4 j1 2910
m1 h1 j2 910
m1 h2 j2 910
m1 h3 j2 910
m1 h4 j2 910
m2 h1 j2 910
m2 h2 j2 300
m2 h3 j2 910
m2 h4 j2 910
m3 h1 j2 1755
m3 h2 j2 1755
m3 h3 j2 1755
m3 h4 j2 1755
m4 h1 j2 1755
m4 h2 j2 1755
m4 h3 j2 1755
m4 h4 j2 1755
m5 h1 j2 1855
m5 h2 j2 1855
m5 h3 j2 1855
m5 h4 j2 1755
m6 h1 j2 1855
m6 h2 j2 1855
m6 h3 j2 1855
m6 h4 j2 1855
;

param INC :=
p1 c3 24 1
p2 c1 48 1
p3 c3 45 1
p4 c3 71 1
p5 c4 28 1
p6 c4 44 1
p7 c3 30 1
p8 c4 61 1
p9 c4 11 1
p10 c2 79 1
p11 c2 68 1
p12 c1 75 1
p13 c1 22 1
p14 c2 54 1
p15 c3 47 1
p16 c4 50 1
p17 c2 33 1
p18 c4 84 1
p19 c2 22 1
p20 c1 52 1
p21 c1 79 1
p22 c2 85 1
p23 c1 90 1
p24 c3 67 1
p25 c3 40 1
p26 c2 53 1
p27 c4 28 1
p28 c2 66 1
p29 c1 87 1
p30 c3 45 1
p31 c1 81 1
p32 c3 25 1
p33 c1 89 1
p34 c1 68 1
p35 c1 69 1
p36 c2 80 1
p37 c1 21 1
p38 c2 51 1
p39 c4 14 1
p40 c3 70 1
p41 c4 73 1
p42 c3 49 1
p43 c3 1 1
p44 c1 55 1
p45 c1 37 1
p46 c4 7 1
p47 c3 86 1
p48 c2 75 1
p49 c3 49 1
p50 c1 55 1
p51 c2 23 1
p52 c1 78 1
p53 c1 29 1
p54 c2 84 1
p55 c1 88 1
p56 c4 45 1
p57 c2 16 1
p58 c2 54 1
p59 c1 57 1
p60 c2 81 1
p61 c2 20 1
p62 c1 86 1
p63 c1 43 1
p64 c1 54 1
p65 c4 65 1
p66 c3 63 1
p67 c1 42 1
p68 c1 61 1
p69 c4 41 1
p70 c3 39 1
p71 c4 14 1
p72 c1 10 1
p73 c1 2 1
p74 c2 53 1
p75 c4 76 1
p76 c3 58 1
p77 c1 52 1
p78 c1 17 1
p79 c4 75 1
p80 c3 32 1
p81 c2 10 1
p82 c4 70 1
p83 c2 90 1
p84 c3 45 1
p85 c3 70 1
p86 c4 21 1
p87 c2 42 1
p88 c1 65 1
p89 c1 50 1
p90 c2 43 1
p91 c3 54 1
p92 c3 56 1
p93 c1 55 1
p94 c2 80 1
p95 c1 13 1
p96 c2 36 1
p97 c2 42 1
p98 c1 75 1
p99 c2 63 1
p100 c1 85 1
p101 c2 39 1
p102 c2 2 1
p103 c3 86 1
p104 c4 17 1
p105 c1 85 1
p106 c4 52 1
p107 c3 87 1
p108 c1 69 1
p109 c3 28 1
p110 c3 10 1
p111 c2 43 1
p112 c3 16 1
p113 c4 38 1
p114 c2 13 1
p115 c3 64 1
p116 c2 23 1
p117 c4 27 1
p118 c1 54 1
p119 c1 17 1
p120 c1 48 1
p121 c4 32 1
p122 c4 41 1
p123 c4 32 1
p124 c2 57 1
p125 c3 87 1
p126 c1 67 1
p127 c4 4 1
p128 c2 48 1
p129 c1 70 1
p130 c3 25 1
p131 c3 52 1
p132 c1 33 1
p133 c1 43 1
p134 c3 60 1
p135 c2 21 1
p136 c2 52 1
p137 c4 67 1
p138 c2 49 1
p139 c4 54 1
p140 c1 55 1
p141 c1 90 1
p142 c3 32 1
p143 c1 15 1
p144 c3 36 1
p145 c4 86 1
p146 c2 77 1
p147 c1 62 1
p148 c4 77 1
p149 c4 61 1
p150 c2 86 1
p151 c4 49 1
p152 c1 31 1
p153 c3 89 1
p154 c4 68 1
p155 c3 24 1
p156 c2 87 1
p157 c1 61 1
p158 c1 27 1
p159 c3 15 1
p160 c3 69 1
p161 c2 10 1
p162 c4 20 1
p163 c4 49 1
p164 c3 34 1
p165 c3 70 1
p166 c4 17 1
p167 c1 2 1
p168 c3 73 1
p169 c4 59 1
p170 c4 68 1
p171 c2 78 1
p172 c1 62 1
p173 c2 61 1
p174 c1 28 1
p175 c1 49 1
p176 c4 39 1
p177 c4 84 1
p178 c3 78 1
p179 c1 64 1
p180 c3 76 1
p181 c2 57 1
p182 c4 12 1
p183 c4 21 1
p184 c4 65 1
p185 c1 55 1
p186 c2 89 1
p187 c2 43 1
p188 c3 79 1
p189 c2 43 1
p190 c1 42 1
p191 c3 67 1
p192 c4 69 1
p193 c2 85 1
p194 c3 48 1
p195 c1 5 1
p196 c1 44 1
p197 c3 83 1
p198 c3 67 1
p199 c1 9 1
p200 c2 36 1
p201 c2 68 1
p202 c2 59 1
p203 c4 51 1
p204 c3 27 1
p205 c3 58 1
p206 c4 57 1
p207 c1 78 1
p208 c2 52 1
p209 c4 9 1
p210 c2 89 1
p211 c1 68 1
p212 c1 8 1
p213 c4 30 1
p214 c1 15 1
p215 c2 60 1
p216 c1 65 1
p217 c3 78 1
p218 c4 71 1
p219 c4 14 1
p220 c3 30 1
p221 c2 69 1
p222 c2 29 1
p223 c3 24 1
p224 c2 3 1
p225 c3 3 1
p226 c4 31 1
p227 c1 42 1
p228 c4 16 1
p229 c3 51 1
p230 c1 76 1
p231 c3 80 1
p232 c1 64 1
p233 c1 78 1
p234 c4 54 1
p235 c1 79 1
p236 c2 14 1
p237 c3 20 1
p238 c4 23 1
p239 c4 87 1
p240 c2 58 1
p241 c3 21 1
p242 c1 59 1
p243 c1 85 1
p244 c4 57 1
p245 c3 42 1
p246 c4 48 1
p247 c3 24 1
p248 c1 46 1
p249 c2 90 1
p250 c2 48 1
p251 c2 14 1
p252 c3 23 1
p253 c3 28 1
p254 c1 63 1
p255 c2 2 1
p256 c3 12 1
p257 c1 90 1
p258 c4 27 1
p259 c1 22 1
p260 c3 51 1
p261 c3 74 1
p262 c3 43 1
p263 c4 6 1
p264 c2 40 1
p265 c2 85 1
p266 c4 60 1
p267 c3 2 1
p268 c3 54 1
p269 c1 13 1
p270 c2 65 1
p271 c2 86 1
p272 c2 71 1
p273 c2 17 1
p274 c1 63 1
p275 c2 11 1
p276 c4 14 1
p277 c3 56 1
p278 c1 87 1
p279 c3 49 1
p280 c1 71 1
p281 c4 28 1
p282 c3 79 1
p283 c2 64 1
p284 c2 16 1
p285 c2 77 1
p286 c1 23 1
p287 c2 64 1
p288 c3 60 1
p289 c2 5 1
p290 c4 60 1
p291 c4 79 1
p292 c1 88 1
p293 c2 31 1
p294 c2 44 1
p295 c4 38 1
p296 c4 73 1
p297 c4 2 1
p298 c1 35 1
p299 c3 33 1
p300 c3 84 1
p301 c2 35 1
p302 c4 40 1
p303 c2 55 1
p304 c2 76 1
p305 c2 56 1
p306 c3 56 1
p307 c2 58 1
p308 c2 51 1
p309 c1 34 1
p310 c4 72 1
p311 c2 73 1
p312 c4 58 1
p313 c1 39 1
p314 c2 11 1
p315 c3 51 1
p316 c2 2 1
p317 c3 89 1
p318 c4 53 1
p319 c4 58 1
p320 c3 20 1
p321 c3 46 1
p322 c2 61 1
p323 c1 13 1
p324 c2 84 1
p325 c3 3 1
p326 c1 87 1
p327 c3 64 1
p328 c4 87 1
p329 c2 81 1
p330 c2 85 1
p331 c3 66 1
p332 c4 77 1
p333 c2 51 1
p334 c3 2 1
p335 c4 47 1
p336 c4 21 1
p337 c3 54 1
p338 c3 16 1
p339 c3 6 1
p340 c1 36 1
p341 c4 62 1
p342 c4 9 1
p343 c4 84 1
p344 c1 76 1
p345 c4 59 1
p346 c1 57 1
p347 c4 6 1
p348 c1 44 1
p349 c2 59 1
p350 c2 90 1
p351 c2 31 1
p352 c4 88 1
p353 c3 69 1
p354 c4 31 1
p355 c2 73 1
p356 c3 23 1
p357 c3 80 1
p358 c4 3 1
p359 c3 87 1
p360 c4 68 1
p361 c3 81 1
p362 c2 31 1
p363 c1 16 1
p364 c4 41 1
p365 c3 58 1
p366 c1 66 1
p367 c3 47 1
p368 c2 13 1
p369 c3 30 1
p370 c4 32 1
p371 c2 47 1
p372 c4 53 1
p373 c3 23 1
p374 c4 69 1
p375 c1 43 1
p376 c2 42 1
p377 c3 87 1
p378 c3 24 1
p379 c3 64 1
p380 c3 19 1
p381 c4 72 1
p382 c1 39 1
p383 c4 67 1
p384 c4 31 1
p385 c1 66 1
p386 c1 74 1
p387 c2 17 1
p388 c1 9 1
p389 c3 70 1
p390 c2 62 1
p391 c2 45 1
p392 c1 12 1
p393 c2 38 1
p394 c2 42 1
p395 c1 42 1
p396 c4 74 1
p397 c1 29 1
p398 c2 26 1
p399 c2 18 1
p400 c2 1 1
p401 c2 15 1
p402 c4 20 1
p403 c1 90 1
p404 c2 50 1
p405 c1 72 1
p406 c2 31 1
p407 c1 40 1
p408 c1 52 1
p409 c4 54 1
p410 c2 14 1
p411 c4 8 1
p412 c1 56 1
p413 c4 72 1
p414 c3 87 1
p415 c4 53 1
p416 c3 6 1
p417 c1 1 1
p418 c3 26 1
p419 c3 73 1
p420 c1 90 1
p421 c3 24 1
p422 c1 52 1
p423 c2 30 1
p424 c4 76 1
p425 c4 33 1
p426 c1 79 1
p427 c3 85 1
p428 c3 74 1
p429 c3 5 1
p430 c2 42 1
p431 c1 74 1
p432 c2 65 1
p433 c2 87 1
p434 c4 85 1
p435 c4 51 1
p436 c1 19 1
p437 c3 46 1
p438 c2 33 1
p439 c3 47 1
p440 c4 70 1
p441 c3 1 1
p442 c2 45 1
p443 c1 82 1
p444 c2 54 1
p445 c4 54 1
p446 c1 9 1
p447 c4 27 1
p448 c4 61 1
p449 c3 77 1
p450 c1 42 1
p451 c3 55 1
p452 c3 16 1
p453 c4 56 1
p454 c1 32 1
p455 c4 78 1
p456 c3 88 1
p457 c3 6 1
p458 c4 34 1
p459 c1 26 1
p460 c1 55 1
p461 c3 41 1
p462 c3 87 1
p463 c3 90 1
p464 c1 20 1
p465 c1 17 1
p466 c3 18 1
p467 c2 63 1
p468 c1 84 1
p469 c1 51 1
p470 c4 30 1
p471 c2 59 1
p472 c1 79 1
p473 c2 16 1
p474 c1 18 1
p475 c2 77 1
p476 c3 24 1
p477 c4 87 1
p478 c3 90 1
p479 c3 16 1
p480 c3 60 1
p481 c3 26 1
p482 c3 9 1
p483 c4 37 1
p484 c4 4 1
p485 c4 46 1
p486 c3 51 1
p487 c2 83 1
p488 c1 90 1
p489 c4 47 1
p490 c1 14 1
p491 c3 69 1
p492 c2 8 1
p493 c2 9 1
p494 c4 12 1
p495 c4 60 1
p496 c2 77 1
p497 c3 2 1
p498 c4 37 1
p499 c1 59 1
p500 c4 63 1
;

param FMAX := 1 ;
param FMIN := 0 ;
param TAD := 0 ;
param TLS := 1 ;
